p cnf 279 1444
39 41 21 -27 -31 0
45 -1 -15 -31 18 0
-30 -32 -7 -46 33 0
-11 49 -37 47 -28 0
-26 3 -27 -7 9 0
39 26 -36 -22 25 0
21 7 47 26 9 0
-22 12 -18 -7 2 0
23 19 -45 7 14 0
9 41 -29 -5 21 0
-20 -32 50 -29 3 0
46 -4 29 50 19 0
-37 4 -15 30 36 0
-26 -7 16 41 30 0
9 31 -40 -42 8 0
9 33 43 15 8 0
-36 27 43 -17 -13 0
-5 16 41 -40 -13 0
17 -40 9 44 -19 0
24 -19 -11 10 -8 0
35 42 5 -30 23 0
1 -33 21 -10 -11 0
27 38 -12 -31 -17 0
16 -47 42 -29 37 0
29 -30 6 -17 11 0
-46 8 -5 47 27 0
8 -7 -11 32 -46 0
46 -33 -50 -2 7 0
-16 17 -45 -42 35 0
44 -31 -26 41 23 0
-7 -28 -20 8 -48 0
-17 33 -49 24 6 0
14 41 -37 45 -22 0
12 -7 -10 33 -50 0
45 -13 -34 12 -1 0
11 -24 38 30 -25 0
-40 -33 -14 -42 21 0
12 41 43 10 -22 0
41 35 -40 -48 20 0
-20 45 -47 -1 9 0
-2 31 23 44 -5 0
49 -45 -6 -29 -10 0
-46 3 -16 49 32 0
-15 -19 20 43 49 0
-19 -40 -28 -41 -15 0
6 -44 24 -48 43 0
45 -44 9 -12 19 0
-17 -25 41 -33 38 0
34 -28 -20 17 30 0
-21 9 -16 45 -13 0
21 -15 -41 -11 -50 0
3 -4 -45 -19 -11 0
40 -31 23 -30 18 0
12 -34 -19 -8 32 0
-28 -3 -5 9 -46 0
-20 -49 -38 33 -19 0
-5 -43 14 -42 -13 0
7 -35 -21 13 -4 0
-34 40 -14 -2 24 0
45 -23 13 27 22 0
-29 -30 -44 -35 13 0
6 -33 -30 43 5 0
-3 -14 19 49 -41 0
30 -38 -14 9 -2 0
-3 -2 -4 17 -33 0
-30 44 2 3 22 0
21 -29 2 -28 31 0
43 -5 -13 44 -2 0
21 -16 -10 -36 17 0
-14 -16 48 -39 6 0
18 20 -7 48 41 0
-8 31 -36 49 15 0
-33 7 25 -31 21 0
-31 -14 -24 36 12 0
-27 -30 17 16 -31 0
5 -35 -27 25 -31 0
14 29 -17 23 -25 0
40 -47 2 -18 31 0
19 11 44 -32 -26 0
-18 -12 33 -40 -49 0
14 38 -18 30 -15 0
33 44 -50 47 -27 0
9 -8 -39 -44 -11 0
-32 49 17 -25 -31 0
17 40 -29 7 44 0
44 13 -12 -35 15 0
11 13 -35 -5 9 0
29 17 -9 5 -11 0
34 -40 -31 39 -15 0
-6 9 -2 32 -14 0
29 22 -48 -1 35 0
31 37 24 43 -18 0
29 5 10 -18 27 0
-12 28 2 -36 29 0
-6 3 -8 -15 -29 0
-2 -38 41 21 -28 0
-36 -28 -5 29 -34 0
-5 -40 -28 -6 34 0
33 -47 39 41 5 0
-31 45 -13 -28 9 0
-26 -13 -5 16 -29 0
47 -18 29 -2 10 0
45 -46 36 -34 -37 0
36 -11 32 8 4 0
33 -41 29 -25 -17 0
38 9 14 -1 19 0
35 14 49 -18 36 0
41 30 47 -38 25 0
-19 -10 -30 35 2 0
-24 -10 -45 -6 -17 0
-30 42 -9 5 16 0
-37 49 -34 4 -31 0
5 16 22 37 41 0
8 -21 -33 5 -13 0
-10 13 3 -23 -44 0
-10 -12 -28 -18 -32 0
-13 29 -41 47 4 0
-41 34 44 -14 -40 0
29 44 -33 16 -36 0
-23 49 9 -2 -44 0
8 -42 23 45 36 0
-43 -38 5 -49 -35 0
-25 -17 -31 -24 -30 0
21 -31 7 -18 -46 0
-6 -4 20 -23 50 0
19 -13 -45 15 30 0
29 -6 -10 20 -50 0
38 16 41 15 -23 0
37 26 -15 3 24 0
39 -48 -45 -21 -22 0
24 40 7 50 -31 0
-17 -22 47 15 -29 0
16 38 15 -26 12 0
1 12 48 27 14 0
-6 8 11 25 41 0
-4 -17 -42 -44 9 0
-27 -43 49 -34 19 0
13 -10 -28 -9 -43 0
-26 -37 -17 -42 22 0
20 4 35 -22 -42 0
11 31 -26 7 -43 0
9 -39 25 -41 18 0
-15 25 -24 -8 30 0
-38 8 -42 -14 -19 0
42 3 -6 -34 28 0
41 -1 15 31 42 0
-8 47 50 -34 15 0
-34 41 31 -3 6 0
-7 -33 -31 6 18 0
18 8 -6 38 -49 0
-46 -21 36 40 20 0
16 -34 -7 -3 -44 0
37 -26 30 21 43 0
42 29 -13 -31 -44 0
-27 -13 45 -25 -15 0
-41 1 -22 6 24 0
-1 42 9 43 30 0
-15 12 -2 -41 -46 0
17 7 43 -48 -6 0
13 -44 -35 -14 24 0
7 -18 -32 48 26 0
-30 -35 1 -18 7 0
41 -42 5 -1 14 0
43 -15 10 -40 -32 0
-22 43 -46 45 39 0
27 -20 -37 16 -7 0
15 44 -1 -16 -30 0
-34 -8 18 42 -46 0
2 -31 -8 11 37 0
-6 4 50 19 41 0
26 13 -27 40 -9 0
16 -34 40 -32 5 0
-20 -16 45 -44 -42 0
10 49 27 38 -23 0
50 43 1 -32 -17 0
-44 -9 17 -22 -38 0
22 5 30 4 -37 0
-28 6 32 1 -36 0
-35 25 50 -36 42 0
34 15 -42 -8 1 0
37 21 33 25 -35 0
-27 -22 -34 -13 -28 0
-4 15 20 -42 29 0
37 28 -21 -8 25 0
21 -37 8 50 -26 0
25 4 7 -36 9 0
-1 30 19 13 -5 0
13 -35 -5 45 -27 0
-22 -21 -47 28 7 0
-29 -20 -42 26 -7 0
-3 5 29 -2 -15 0
9 -36 -41 -31 -19 0
-19 40 3 4 -46 0
-24 14 13 -15 -12 0
-6 13 -8 38 34 0
43 -16 -46 38 45 0
28 -44 31 -33 3 0
15 -47 19 45 -35 0
43 14 27 4 10 0
21 -2 37 26 9 0
-39 -41 14 -12 -46 0
48 18 -31 36 38 0
16 39 36 -10 -30 0
-43 8 -23 3 -10 0
21 -26 -28 29 -48 0
-45 23 -25 26 -7 0
-39 38 49 26 21 0
-11 -41 -39 14 19 0
-29 -9 36 -26 27 0
-34 -35 26 -50 47 0
45 2 -13 15 -29 0
-12 9 -8 26 19 0
-40 -31 -50 42 26 0
39 -8 -19 46 17 0
-15 31 35 49 37 0
-45 40 -14 2 -29 0
-21 13 10 49 -32 0
6 34 22 38 19 0
48 26 -34 12 16 0
40 -10 -23 -14 -29 0
-35 33 -18 -24 -44 0
-44 13 -34 26 23 0
18 36 41 19 -5 0
-48 -37 -50 25 -47 0
-30 -21 11 45 39 0
-11 1 39 26 18 0
47 -34 16 -42 -38 0
9 -42 38 -28 -8 0
1 15 -5 -22 11 0
10 26 -27 -13 21 0
41 -31 -42 -12 -24 0
39 48 -4 -16 38 0
-31 -4 -30 23 -13 0
9 -43 24 21 27 0
-7 -28 27 -8 -45 0
-28 -13 -7 -34 -1 0
-20 -44 5 48 31 0
-18 -33 -50 -4 39 0
38 -10 -36 1 3 0
3 21 33 22 -5 0
-44 -26 34 35 -37 0
-49 -12 4 -19 -24 0
-29 -28 43 24 -3 0
28 44 32 -2 25 0
-35 -45 6 3 33 0
-10 -13 43 -1 25 0
14 -7 -49 -48 37 0
15 48 30 28 45 0
20 8 36 -35 24 0
15 -50 12 40 -13 0
-39 -40 49 14 -3 0
-29 2 6 -46 -32 0
48 11 -41 42 27 0
-21 -49 44 -43 -35 0
-15 -5 -27 21 39 0
27 -25 26 -7 21 0
35 4 32 -6 26 0
-17 20 33 -39 -46 0
43 -37 -5 49 20 0
33 -43 -13 34 -23 0
-43 -23 -8 -2 -3 0
24 -29 40 -11 -45 0
3 -15 11 -44 -19 0
43 13 33 5 24 0
41 -45 -36 50 -6 0
-23 -8 41 -22 28 0
-23 -20 34 -44 45 0
36 16 23 -11 14 0
48 -40 -6 -42 -13 0
-23 -9 22 -33 -38 0
43 10 33 -44 21 0
-50 -46 -24 -39 27 0
24 -15 -6 48 31 0
-1 37 4 -29 21 0
23 45 43 -36 -1 0
27 -13 42 -17 -44 0
5 -1 -23 15 -31 0
8 -34 33 -12 -38 0
-17 -43 -5 25 -16 0
-18 19 47 38 42 0
13 37 31 -23 16 0
-47 -43 13 -33 6 0
-44 -46 7 21 12 0
47 -14 3 28 36 0
-22 -29 -26 -20 31 0
7 16 -24 4 48 0
-41 33 30 -1 -29 0
-6 -24 31 -41 -25 0
-19 47 12 50 -38 0
11 -9 18 1 43 0
-2 21 4 15 -31 0
-15 -49 21 20 -27 0
-45 1 29 22 -24 0
-11 17 7 -32 -24 0
28 -35 -21 -33 -13 0
18 2 -33 50 13 0
-30 -20 -1 17 18 0
18 -15 -2 -45 -6 0
-17 -4 -18 -13 20 0
16 -18 -43 -6 -11 0
-3 6 -19 14 -9 0
40 1 5 46 41 0
-18 -29 10 -17 -32 0
-29 15 -25 16 28 0
13 -27 -49 42 2 0
-38 29 13 7 1 0
49 26 11 -4 -13 0
-35 21 5 20 -40 0
-12 37 38 -46 43 0
22 16 31 -24 48 0
-48 31 5 38 -16 0
46 20 -33 -19 5 0
-50 46 -11 31 29 0
48 6 4 34 -7 0
-45 19 -22 -33 -8 0
-21 -23 -39 -40 -22 0
-23 1 -49 -7 22 0
-44 39 35 -38 27 0
-44 -19 9 41 4 0
13 41 40 26 35 0
45 -1 -16 40 -29 0
44 -14 -35 23 40 0
10 4 -28 31 11 0
15 3 31 -12 29 0
-28 -18 8 14 4 0
-41 27 -13 16 -3 0
35 18 -21 -27 24 0
48 -6 -12 -38 40 0
12 42 19 47 -20 0
8 -43 36 -50 -20 0
7 27 14 49 16 0
40 -44 21 -4 5 0
-6 31 43 24 -2 0
-11 -24 -21 12 19 0
31 38 -46 -3 -50 0
22 26 -15 -20 -43 0
3 -41 -6 47 -21 0
-3 -35 -44 7 9 0
47 26 27 -46 -38 0
45 40 19 -36 4 0
20 -14 1 -30 27 0
-48 -5 -50 -34 14 0
-31 17 -8 -2 5 0
28 15 -9 -32 22 0
-37 -11 24 6 -42 0
23 -31 -44 -29 -32 0
44 2 27 26 21 0
13 -6 41 -42 3 0
16 3 49 28 -50 0
-2 -18 27 -50 35 0
24 -13 19 -47 -31 0
-9 -8 14 -26 -33 0
50 -17 24 -46 22 0
5 -49 -44 46 43 0
49 24 48 34 21 0
-24 29 -14 -17 -15 0
-1 -11 -15 -16 -5 0
30 -21 34 -3 4 0
32 -47 38 2 8 0
3 1 10 -7 13 0
40 31 -25 -5 -1 0
-15 -16 23 48 -46 0
-16 19 26 7 28 0
25 -15 -28 31 30 0
21 45 1 3 -46 0
-45 -42 -28 47 -50 0
29 31 2 -18 -33 0
-22 21 -12 -16 30 0
3 -12 -27 22 -18 0
33 -46 45 -29 -14 0
30 47 32 -44 -12 0
-2 38 23 4 -49 0
24 -13 -6 46 23 0
21 13 -45 -19 34 0
-44 32 -49 -34 -39 0
-34 28 -12 40 39 0
-20 -9 -11 45 46 0
-22 33 6 -2 45 0
21 -1 37 43 48 0
-12 -6 -41 19 14 0
-8 -48 -24 26 -47 0
22 -47 -25 42 -12 0
2 4 -12 -11 -47 0
-29 -28 25 -50 41 0
37 24 28 -45 -38 0
-36 48 -28 31 -40 0
-23 30 -15 12 11 0
-37 2 -16 -35 -1 0
-7 26 -8 -2 37 0
37 35 50 43 -26 0
-46 22 45 9 47 0
4 -25 -30 -11 24 0
-33 -21 -15 -30 5 0
48 -14 -26 15 -36 0
-6 18 27 -26 47 0
42 50 -26 -43 19 0
44 18 17 -36 10 0
-43 -49 -39 38 -27 0
-41 -17 1 19 42 0
-30 47 50 -1 2 0
-42 -26 -35 -21 41 0
-16 -14 -41 -30 50 0
30 22 39 -49 -27 0
12 39 -25 -23 13 0
2 -48 -26 -37 -8 0
-7 -35 22 -33 -6 0
-16 11 41 -50 31 0
45 -37 9 50 -44 0
-28 10 37 -3 -43 0
-48 32 -24 -18 33 0
-41 33 -12 44 -19 0
-25 -24 -14 34 -36 0
-21 30 17 44 -19 0
-42 -48 34 19 -47 0
-47 -10 20 -1 -28 0
-6 32 -42 -20 -12 0
-1 14 -22 29 47 0
-5 -33 29 44 50 0
-6 -43 29 -42 -13 0
-37 48 -30 17 21 0
-27 11 -22 -41 45 0
35 45 -1 -9 6 0
45 18 13 -34 20 0
36 -29 -37 -48 4 0
40 -41 6 -45 26 0
-23 31 -35 22 49 0
34 50 -20 -27 -32 0
-4 -37 22 -43 18 0
35 -9 -29 46 5 0
-43 -7 10 21 8 0
-25 27 49 5 -40 0
-41 -4 37 39 2 0
-41 -15 13 -22 37 0
-34 22 -33 -15 -37 0
-24 -18 -27 -47 11 0
3 -18 23 20 1 0
27 -12 20 44 26 0
24 -22 -50 -6 -9 0
3 -37 -12 -27 17 0
-40 -30 3 4 26 0
-48 42 -7 38 8 0
-37 -14 -12 -6 17 0
-21 26 49 -15 -11 0
-32 7 -21 -18 -15 0
1 31 18 36 -29 0
38 1 -22 28 18 0
-31 28 -24 17 46 0
49 -28 1 -42 14 0
44 -28 36 -11 29 0
-13 -17 14 41 -34 0
8 42 39 11 24 0
-50 -45 38 -44 -10 0
2 -17 -34 -25 48 0
-19 -37 14 7 -28 0
-5 -2 -38 18 33 0
-17 -23 -36 16 46 0
15 19 1 -16 39 0
-34 3 -24 25 -30 0
18 -20 9 -3 1 0
25 49 11 -10 -47 0
-43 -46 1 33 -32 0
-8 -5 11 -31 44 0
-19 -43 -2 15 39 0
26 4 10 -50 -24 0
5 24 46 43 9 0
17 42 -25 -27 -8 0
-40 -46 -17 4 47 0
-33 47 44 -17 28 0
46 -3 12 10 -39 0
-33 -1 44 -26 -35 0
-7 -1 -39 18 14 0
-16 -37 -12 -2 -38 0
26 -1 29 -2 24 0
6 43 2 -5 -24 0
-40 22 -5 -29 13 0
-10 -33 -28 20 18 0
-28 -18 2 22 -11 0
-46 1 37 25 -35 0
46 -43 29 -49 11 0
17 -2 -13 40 12 0
-48 -9 10 -39 37 0
-16 -32 44 -9 25 0
-42 36 49 33 48 0
-27 -12 -33 -30 34 0
41 -27 29 9 -16 0
6 -42 -4 -8 -38 0
43 27 4 -5 -22 0
-45 17 -39 -26 -22 0
-10 20 19 -17 -3 0
17 -8 -4 -25 -9 0
-24 48 14 47 -38 0
-5 -36 44 23 30 0
23 13 6 -3 24 0
-11 -35 -16 24 10 0
-32 43 19 33 4 0
-5 -7 -42 26 -13 0
35 -39 4 41 -40 0
23 -47 50 15 -21 0
-43 -2 -31 -33 -23 0
35 -24 -45 -15 -40 0
-3 -5 51 0
3 -5 -51 0
-3 5 -51 0
3 5 51 0
-6 -7 52 0
6 -7 -52 0
-6 7 -52 0
6 7 52 0
8 9 53 0
-8 9 -53 0
8 -9 -53 0
-8 -9 53 0
-10 -11 54 0
10 -11 -54 0
-10 11 -54 0
10 11 54 0
-12 -14 55 0
12 -14 -55 0
-12 14 -55 0
12 14 55 0
-15 -19 56 0
15 -19 -56 0
-15 19 -56 0
15 19 56 0
21 -22 57 0
-21 -22 -57 0
21 22 -57 0
-21 22 57 0
-23 -25 58 0
23 -25 -58 0
-23 25 -58 0
23 25 58 0
-26 -28 59 0
26 -28 -59 0
-26 28 -59 0
26 28 59 0
-29 31 60 0
29 31 -60 0
-29 -31 -60 0
29 -31 60 0
-34 35 61 0
34 35 -61 0
-34 -35 -61 0
34 -35 61 0
-36 -39 62 0
36 -39 -62 0
-36 39 -62 0
36 39 62 0
40 41 63 0
-40 41 -63 0
40 -41 -63 0
-40 -41 63 0
42 -44 64 0
-42 -44 -64 0
42 44 -64 0
-42 44 64 0
-45 -48 65 0
45 -48 -65 0
-45 48 -65 0
45 48 65 0
50 -51 66 0
-50 -51 -66 0
50 51 -66 0
-50 51 66 0
52 -53 67 0
-52 -53 -67 0
52 53 -67 0
-52 53 67 0
54 -55 68 0
-54 -55 -68 0
54 55 -68 0
-54 55 68 0
56 -57 69 0
-56 -57 -69 0
56 57 -69 0
-56 57 69 0
58 -59 70 0
-58 -59 -70 0
58 59 -70 0
-58 59 70 0
60 -61 71 0
-60 -61 -71 0
60 61 -71 0
-60 61 71 0
62 -63 72 0
-62 -63 -72 0
62 63 -72 0
-62 63 72 0
64 -65 73 0
-64 -65 -73 0
64 65 -73 0
-64 65 73 0
66 -67 74 0
-66 -67 -74 0
66 67 -74 0
-66 67 74 0
68 -69 75 0
-68 -69 -75 0
68 69 -75 0
-68 69 75 0
70 -71 76 0
-70 -71 -76 0
70 71 -76 0
-70 71 76 0
72 -73 77 0
-72 -73 -77 0
72 73 -77 0
-72 73 77 0
74 -75 78 0
-74 -75 -78 0
74 75 -78 0
-74 75 78 0
76 -77 79 0
-76 -77 -79 0
76 77 -79 0
-76 77 79 0
78 79 0
-78 -79 0
2 -3 80 0
-2 -3 -80 0
2 3 -80 0
-2 3 80 0
-4 6 81 0
4 6 -81 0
-4 -6 -81 0
4 -6 81 0
-7 -8 82 0
7 -8 -82 0
-7 8 -82 0
7 8 82 0
10 -11 83 0
-10 -11 -83 0
10 11 -83 0
-10 11 83 0
13 14 84 0
-13 14 -84 0
13 -14 -84 0
-13 -14 84 0
-15 -16 85 0
15 -16 -85 0
-15 16 -85 0
15 16 85 0
18 19 86 0
-18 19 -86 0
18 -19 -86 0
-18 -19 86 0
20 21 87 0
-20 21 -87 0
20 -21 -87 0
-20 -21 87 0
-23 26 88 0
23 26 -88 0
-23 -26 -88 0
23 -26 88 0
-30 32 89 0
30 32 -89 0
-30 -32 -89 0
30 -32 89 0
-33 36 90 0
33 36 -90 0
-33 -36 -90 0
33 -36 90 0
-41 42 91 0
41 42 -91 0
-41 -42 -91 0
41 -42 91 0
45 -46 92 0
-45 -46 -92 0
45 46 -92 0
-45 46 92 0
-48 49 93 0
48 49 -93 0
-48 -49 -93 0
48 -49 93 0
80 -81 94 0
-80 -81 -94 0
80 81 -94 0
-80 81 94 0
82 -83 95 0
-82 -83 -95 0
82 83 -95 0
-82 83 95 0
84 -85 96 0
-84 -85 -96 0
84 85 -96 0
-84 85 96 0
86 -87 97 0
-86 -87 -97 0
86 87 -97 0
-86 87 97 0
88 -89 98 0
-88 -89 -98 0
88 89 -98 0
-88 89 98 0
90 -91 99 0
-90 -91 -99 0
90 91 -99 0
-90 91 99 0
92 -93 100 0
-92 -93 -100 0
92 93 -100 0
-92 93 100 0
94 -95 101 0
-94 -95 -101 0
94 95 -101 0
-94 95 101 0
96 -97 102 0
-96 -97 -102 0
96 97 -102 0
-96 97 102 0
98 -99 103 0
-98 -99 -103 0
98 99 -103 0
-98 99 103 0
100 -101 104 0
-100 -101 -104 0
100 101 -104 0
-100 101 104 0
102 -103 105 0
-102 -103 -105 0
102 103 -105 0
-102 103 105 0
104 105 0
-104 -105 0
3 -4 106 0
-3 -4 -106 0
3 4 -106 0
-3 4 106 0
-18 19 107 0
18 19 -107 0
-18 -19 -107 0
18 -19 107 0
20 21 108 0
-20 21 -108 0
20 -21 -108 0
-20 -21 108 0
29 -30 109 0
-29 -30 -109 0
29 30 -109 0
-29 30 109 0
32 -34 110 0
-32 -34 -110 0
32 34 -110 0
-32 34 110 0
-35 -37 111 0
35 -37 -111 0
-35 37 -111 0
35 37 111 0
-38 39 112 0
38 39 -112 0
-38 -39 -112 0
38 -39 112 0
-41 42 113 0
41 42 -113 0
-41 -42 -113 0
41 -42 113 0
44 -49 114 0
-44 -49 -114 0
44 49 -114 0
-44 49 114 0
106 -107 115 0
-106 -107 -115 0
106 107 -115 0
-106 107 115 0
108 -109 116 0
-108 -109 -116 0
108 109 -116 0
-108 109 116 0
110 -111 117 0
-110 -111 -117 0
110 111 -117 0
-110 111 117 0
112 -113 118 0
-112 -113 -118 0
112 113 -118 0
-112 113 118 0
114 -115 119 0
-114 -115 -119 0
114 115 -119 0
-114 115 119 0
116 -117 120 0
-116 -117 -120 0
116 117 -120 0
-116 117 120 0
-118 -119 120 0
118 -119 -120 0
-118 119 -120 0
118 119 120 0
1 2 121 0
-1 2 -121 0
1 -2 -121 0
-1 -2 121 0
5 -6 122 0
-5 -6 -122 0
5 6 -122 0
-5 6 122 0
-7 10 123 0
7 10 -123 0
-7 -10 -123 0
7 -10 123 0
11 13 124 0
-11 13 -124 0
11 -13 -124 0
-11 -13 124 0
-14 -16 125 0
14 -16 -125 0
-14 16 -125 0
14 16 125 0
-21 23 126 0
21 23 -126 0
-21 -23 -126 0
21 -23 126 0
24 25 127 0
-24 25 -127 0
24 -25 -127 0
-24 -25 127 0
26 -28 128 0
-26 -28 -128 0
26 28 -128 0
-26 28 128 0
-32 33 129 0
32 33 -129 0
-32 -33 -129 0
32 -33 129 0
-34 -35 130 0
34 -35 -130 0
-34 35 -130 0
34 35 130 0
-39 -43 131 0
39 -43 -131 0
-39 43 -131 0
39 43 131 0
44 -45 132 0
-44 -45 -132 0
44 45 -132 0
-44 45 132 0
47 48 133 0
-47 48 -133 0
47 -48 -133 0
-47 -48 133 0
49 50 134 0
-49 50 -134 0
49 -50 -134 0
-49 -50 134 0
121 -122 135 0
-121 -122 -135 0
121 122 -135 0
-121 122 135 0
123 -124 136 0
-123 -124 -136 0
123 124 -136 0
-123 124 136 0
125 -126 137 0
-125 -126 -137 0
125 126 -137 0
-125 126 137 0
127 -128 138 0
-127 -128 -138 0
127 128 -138 0
-127 128 138 0
129 -130 139 0
-129 -130 -139 0
129 130 -139 0
-129 130 139 0
131 -132 140 0
-131 -132 -140 0
131 132 -140 0
-131 132 140 0
133 -134 141 0
-133 -134 -141 0
133 134 -141 0
-133 134 141 0
135 -136 142 0
-135 -136 -142 0
135 136 -142 0
-135 136 142 0
137 -138 143 0
-137 -138 -143 0
137 138 -143 0
-137 138 143 0
139 -140 144 0
-139 -140 -144 0
139 140 -144 0
-139 140 144 0
141 -142 145 0
-141 -142 -145 0
141 142 -145 0
-141 142 145 0
143 -144 146 0
-143 -144 -146 0
143 144 -146 0
-143 144 146 0
145 146 0
-145 -146 0
2 5 147 0
-2 5 -147 0
2 -5 -147 0
-2 -5 147 0
-6 -9 148 0
6 -9 -148 0
-6 9 -148 0
6 9 148 0
10 15 149 0
-10 15 -149 0
10 -15 -149 0
-10 -15 149 0
16 19 150 0
-16 19 -150 0
16 -19 -150 0
-16 -19 150 0
21 22 151 0
-21 22 -151 0
21 -22 -151 0
-21 -22 151 0
25 26 152 0
-25 26 -152 0
25 -26 -152 0
-25 -26 152 0
28 -29 153 0
-28 -29 -153 0
28 29 -153 0
-28 29 153 0
31 32 154 0
-31 32 -154 0
31 -32 -154 0
-31 -32 154 0
-34 36 155 0
34 36 -155 0
-34 -36 -155 0
34 -36 155 0
-37 39 156 0
37 39 -156 0
-37 -39 -156 0
37 -39 156 0
-41 -42 157 0
41 -42 -157 0
-41 42 -157 0
41 42 157 0
47 -48 158 0
-47 -48 -158 0
47 48 -158 0
-47 48 158 0
146 -147 159 0
-146 -147 -159 0
146 147 -159 0
-146 147 159 0
148 -149 160 0
-148 -149 -160 0
148 149 -160 0
-148 149 160 0
150 -151 161 0
-150 -151 -161 0
150 151 -161 0
-150 151 161 0
152 -153 162 0
-152 -153 -162 0
152 153 -162 0
-152 153 162 0
154 -155 163 0
-154 -155 -163 0
154 155 -163 0
-154 155 163 0
156 -157 164 0
-156 -157 -164 0
156 157 -164 0
-156 157 164 0
158 -159 165 0
-158 -159 -165 0
158 159 -165 0
-158 159 165 0
160 -161 166 0
-160 -161 -166 0
160 161 -166 0
-160 161 166 0
162 -163 167 0
-162 -163 -167 0
162 163 -167 0
-162 163 167 0
164 -165 168 0
-164 -165 -168 0
164 165 -168 0
-164 165 168 0
166 -167 169 0
-166 -167 -169 0
166 167 -169 0
-166 167 169 0
168 169 0
-168 -169 0
-3 -6 170 0
3 -6 -170 0
-3 6 -170 0
3 6 170 0
7 -8 171 0
-7 -8 -171 0
7 8 -171 0
-7 8 171 0
11 -13 172 0
-11 -13 -172 0
11 13 -172 0
-11 13 172 0
-15 -16 173 0
15 -16 -173 0
-15 16 -173 0
15 16 173 0
-17 18 174 0
17 18 -174 0
-17 -18 -174 0
17 -18 174 0
19 20 175 0
-19 20 -175 0
19 -20 -175 0
-19 -20 175 0
21 -28 176 0
-21 -28 -176 0
21 28 -176 0
-21 28 176 0
-30 36 177 0
30 36 -177 0
-30 -36 -177 0
30 -36 177 0
-38 40 178 0
38 40 -178 0
-38 -40 -178 0
38 -40 178 0
-41 43 179 0
41 43 -179 0
-41 -43 -179 0
41 -43 179 0
-44 -47 180 0
44 -47 -180 0
-44 47 -180 0
44 47 180 0
169 -170 181 0
-169 -170 -181 0
169 170 -181 0
-169 170 181 0
171 -172 182 0
-171 -172 -182 0
171 172 -182 0
-171 172 182 0
173 -174 183 0
-173 -174 -183 0
173 174 -183 0
-173 174 183 0
175 -176 184 0
-175 -176 -184 0
175 176 -184 0
-175 176 184 0
177 -178 185 0
-177 -178 -185 0
177 178 -185 0
-177 178 185 0
179 -180 186 0
-179 -180 -186 0
179 180 -186 0
-179 180 186 0
181 -182 187 0
-181 -182 -187 0
181 182 -187 0
-181 182 187 0
183 -184 188 0
-183 -184 -188 0
183 184 -188 0
-183 184 188 0
185 -186 189 0
-185 -186 -189 0
185 186 -189 0
-185 186 189 0
-187 -188 189 0
187 -188 -189 0
-187 188 -189 0
187 188 189 0
1 -3 190 0
-1 -3 -190 0
1 3 -190 0
-1 3 190 0
-4 5 191 0
4 5 -191 0
-4 -5 -191 0
4 -5 191 0
-8 9 192 0
8 9 -192 0
-8 -9 -192 0
8 -9 192 0
-11 -15 193 0
11 -15 -193 0
-11 15 -193 0
11 15 193 0
-17 18 194 0
17 18 -194 0
-17 -18 -194 0
17 -18 194 0
21 22 195 0
-21 22 -195 0
21 -22 -195 0
-21 -22 195 0
23 27 196 0
-23 27 -196 0
23 -27 -196 0
-23 -27 196 0
-28 29 197 0
28 29 -197 0
-28 -29 -197 0
28 -29 197 0
-30 -31 198 0
30 -31 -198 0
-30 31 -198 0
30 31 198 0
33 37 199 0
-33 37 -199 0
33 -37 -199 0
-33 -37 199 0
38 41 200 0
-38 41 -200 0
38 -41 -200 0
-38 -41 200 0
42 -43 201 0
-42 -43 -201 0
42 43 -201 0
-42 43 201 0
44 -48 202 0
-44 -48 -202 0
44 48 -202 0
-44 48 202 0
-49 -50 203 0
49 -50 -203 0
-49 50 -203 0
49 50 203 0
190 -191 204 0
-190 -191 -204 0
190 191 -204 0
-190 191 204 0
192 -193 205 0
-192 -193 -205 0
192 193 -205 0
-192 193 205 0
194 -195 206 0
-194 -195 -206 0
194 195 -206 0
-194 195 206 0
196 -197 207 0
-196 -197 -207 0
196 197 -207 0
-196 197 207 0
198 -199 208 0
-198 -199 -208 0
198 199 -208 0
-198 199 208 0
200 -201 209 0
-200 -201 -209 0
200 201 -209 0
-200 201 209 0
202 -203 210 0
-202 -203 -210 0
202 203 -210 0
-202 203 210 0
204 -205 211 0
-204 -205 -211 0
204 205 -211 0
-204 205 211 0
206 -207 212 0
-206 -207 -212 0
206 207 -212 0
-206 207 212 0
208 -209 213 0
-208 -209 -213 0
208 209 -213 0
-208 209 213 0
210 -211 214 0
-210 -211 -214 0
210 211 -214 0
-210 211 214 0
212 -213 215 0
-212 -213 -215 0
212 213 -215 0
-212 213 215 0
214 215 0
-214 -215 0
-1 5 216 0
1 5 -216 0
-1 -5 -216 0
1 -5 216 0
-6 7 217 0
6 7 -217 0
-6 -7 -217 0
6 -7 217 0
9 -10 218 0
-9 -10 -218 0
9 10 -218 0
-9 10 218 0
13 20 219 0
-13 20 -219 0
13 -20 -219 0
-13 -20 219 0
21 -27 220 0
-21 -27 -220 0
21 27 -220 0
-21 27 220 0
-28 30 221 0
28 30 -221 0
-28 -30 -221 0
28 -30 221 0
-31 -34 222 0
31 -34 -222 0
-31 34 -222 0
31 34 222 0
35 36 223 0
-35 36 -223 0
35 -36 -223 0
-35 -36 223 0
37 -39 224 0
-37 -39 -224 0
37 39 -224 0
-37 39 224 0
40 45 225 0
-40 45 -225 0
40 -45 -225 0
-40 -45 225 0
-46 48 226 0
46 48 -226 0
-46 -48 -226 0
46 -48 226 0
49 50 227 0
-49 50 -227 0
49 -50 -227 0
-49 -50 227 0
216 -217 228 0
-216 -217 -228 0
216 217 -228 0
-216 217 228 0
218 -219 229 0
-218 -219 -229 0
218 219 -229 0
-218 219 229 0
220 -221 230 0
-220 -221 -230 0
220 221 -230 0
-220 221 230 0
222 -223 231 0
-222 -223 -231 0
222 223 -231 0
-222 223 231 0
224 -225 232 0
-224 -225 -232 0
224 225 -232 0
-224 225 232 0
226 -227 233 0
-226 -227 -233 0
226 227 -233 0
-226 227 233 0
228 -229 234 0
-228 -229 -234 0
228 229 -234 0
-228 229 234 0
230 -231 235 0
-230 -231 -235 0
230 231 -235 0
-230 231 235 0
232 -233 236 0
-232 -233 -236 0
232 233 -236 0
-232 233 236 0
-234 -235 236 0
234 -235 -236 0
-234 235 -236 0
234 235 236 0
-3 7 237 0
3 7 -237 0
-3 -7 -237 0
3 -7 237 0
9 -10 238 0
-9 -10 -238 0
9 10 -238 0
-9 10 238 0
-13 14 239 0
13 14 -239 0
-13 -14 -239 0
13 -14 239 0
15 16 240 0
-15 16 -240 0
15 -16 -240 0
-15 -16 240 0
18 -21 241 0
-18 -21 -241 0
18 21 -241 0
-18 21 241 0
-25 29 242 0
25 29 -242 0
-25 -29 -242 0
25 -29 242 0
35 36 243 0
-35 36 -243 0
35 -36 -243 0
-35 -36 243 0
-37 -38 244 0
37 -38 -244 0
-37 38 -244 0
37 38 244 0
39 -40 245 0
-39 -40 -245 0
39 40 -245 0
-39 40 245 0
43 -47 246 0
-43 -47 -246 0
43 47 -246 0
-43 47 246 0
237 -238 247 0
-237 -238 -247 0
237 238 -247 0
-237 238 247 0
239 -240 248 0
-239 -240 -248 0
239 240 -248 0
-239 240 248 0
241 -242 249 0
-241 -242 -249 0
241 242 -249 0
-241 242 249 0
243 -244 250 0
-243 -244 -250 0
243 244 -250 0
-243 244 250 0
245 -246 251 0
-245 -246 -251 0
245 246 -251 0
-245 246 251 0
247 -248 252 0
-247 -248 -252 0
247 248 -252 0
-247 248 252 0
249 -250 253 0
-249 -250 -253 0
249 250 -253 0
-249 250 253 0
-251 -252 253 0
251 -252 -253 0
-251 252 -253 0
251 252 253 0
2 3 254 0
-2 3 -254 0
2 -3 -254 0
-2 -3 254 0
4 -5 255 0
-4 -5 -255 0
4 5 -255 0
-4 5 255 0
-6 7 256 0
6 7 -256 0
-6 -7 -256 0
6 -7 256 0
-9 -10 257 0
9 -10 -257 0
-9 10 -257 0
9 10 257 0
-14 -15 258 0
14 -15 -258 0
-14 15 -258 0
14 15 258 0
-18 -19 259 0
18 -19 -259 0
-18 19 -259 0
18 19 259 0
-20 21 260 0
20 21 -260 0
-20 -21 -260 0
20 -21 260 0
23 25 261 0
-23 25 -261 0
23 -25 -261 0
-23 -25 261 0
-30 31 262 0
30 31 -262 0
-30 -31 -262 0
30 -31 262 0
32 -33 263 0
-32 -33 -263 0
32 33 -263 0
-32 33 263 0
37 39 264 0
-37 39 -264 0
37 -39 -264 0
-37 -39 264 0
-40 -42 265 0
40 -42 -265 0
-40 42 -265 0
40 42 265 0
43 47 266 0
-43 47 -266 0
43 -47 -266 0
-43 -47 266 0
-48 -50 267 0
48 -50 -267 0
-48 50 -267 0
48 50 267 0
254 -255 268 0
-254 -255 -268 0
254 255 -268 0
-254 255 268 0
256 -257 269 0
-256 -257 -269 0
256 257 -269 0
-256 257 269 0
258 -259 270 0
-258 -259 -270 0
258 259 -270 0
-258 259 270 0
260 -261 271 0
-260 -261 -271 0
260 261 -271 0
-260 261 271 0
262 -263 272 0
-262 -263 -272 0
262 263 -272 0
-262 263 272 0
264 -265 273 0
-264 -265 -273 0
264 265 -273 0
-264 265 273 0
266 -267 274 0
-266 -267 -274 0
266 267 -274 0
-266 267 274 0
268 -269 275 0
-268 -269 -275 0
268 269 -275 0
-268 269 275 0
270 -271 276 0
-270 -271 -276 0
270 271 -276 0
-270 271 276 0
272 -273 277 0
-272 -273 -277 0
272 273 -277 0
-272 273 277 0
274 -275 278 0
-274 -275 -278 0
274 275 -278 0
-274 275 278 0
276 -277 279 0
-276 -277 -279 0
276 277 -279 0
-276 277 279 0
278 279 0
-278 -279 0
